35, 949
767, 92
730, 0
1082, 69
984, 81
1108, 94
289, 34
1006, 82
1149, 45
1020, 27
491, 19
982, 24
522, 80
890, 96
306, 58
739, 40
722, 2
329, 57
936, 71
961, 11
862, 65
782, 31
1134, 83
286, 1
1229, 85
782, 87
341, 65
463, 36
1150, 53
450, 51
532, 11
296, 57
1026, 27
1058, 28
861, 56
943, 100